0 0 0 0
0 1 0 0
0 2 0 0
0 3 0 0
0 4 0 1
0 5 0 8
0 6 0 14
0 7 0 14
0 8 0 16
0 9 0 35
0 10 0 14
0 11 0 12
0 12 0 32
0 13 0 8
0 14 0 22
0 15 0 19
0 16 0 4
0 17 0 23
0 18 0 32
0 19 0 55
0 20 0 70
0 21 0 2
0 22 0 26
0 23 0 19
0 24 0 22
0 25 0 77
0 26 0 4
0 27 0 36
0 28 0 9
0 29 0 26
0 30 0 36
0 31 0 16
0 32 0 35
0 33 0 40
0 34 0 46
0 35 0 51
0 36 0 41
0 37 0 40
0 38 0 49
0 39 0 46
0 40 0 40
0 41 0 32
0 42 0 66
0 43 0 56
0 44 0 49
0 45 0 58
0 46 0 67
0 47 0 58
0 48 0 76
0 49 0 63
0 50 0 61
0 51 0 76
0 52 0 77
0 53 0 85
0 54 0 80
0 55 0 63
0 56 0 91
0 57 0 74
0 58 0 79
0 59 0 95
0 60 0 86
0 61 0 101
